(set-info :smt-lib-version 2.6)
(set-logic QF_LIA)
(set-info :source |
Alberto Griggio

|)
(set-info :category "random")
(set-info :status sat)
(declare-fun x0 () Int)
(declare-fun x1 () Int)
(declare-fun x2 () Int)
(declare-fun x3 () Int)
(declare-fun x4 () Int)
(declare-fun x5 () Int)
(declare-fun x6 () Int)
(declare-fun x7 () Int)
(declare-fun x8 () Int)
(declare-fun x9 () Int)
(declare-fun x10 () Int)
(declare-fun x11 () Int)
(declare-fun x12 () Int)
(declare-fun x13 () Int)
(declare-fun x14 () Int)
(declare-fun x15 () Int)
(declare-fun x16 () Int)
(declare-fun x17 () Int)
(declare-fun x18 () Int)
(declare-fun x19 () Int)
(declare-fun x20 () Int)
(declare-fun x21 () Int)
(declare-fun x22 () Int)
(declare-fun x23 () Int)
(declare-fun x24 () Int)
(declare-fun x25 () Int)
(declare-fun x26 () Int)
(declare-fun x27 () Int)
(declare-fun x28 () Int)
(declare-fun x29 () Int)
(declare-fun x30 () Int)
(declare-fun x31 () Int)
(declare-fun x32 () Int)
(declare-fun x33 () Int)
(declare-fun x34 () Int)
(declare-fun x35 () Int)
(declare-fun x36 () Int)
(declare-fun x37 () Int)
(declare-fun x38 () Int)
(declare-fun x39 () Int)
(assert (let ((?v_12 (* 0 x30)) (?v_59 (* 0 x26)) (?v_10 (* 0 x15)) (?v_24 (* 0 x33)) (?v_3 (* 1 x38)) (?v_89 (* 1 x20)) (?v_4 (* 0 x7)) (?v_99 (* 1 x18)) (?v_16 (* 0 x32)) (?v_18 (* 1 x14)) (?v_113 (* 1 x2)) (?v_11 (* 1 x30)) (?v_103 (* 0 x35)) (?v_28 (* 1 x35)) (?v_0 (* 0 x39)) (?v_72 (* 1 x9)) (?v_29 (* 0 x12)) (?v_14 (* 1 x11)) (?v_19 (* 0 x0)) (?v_47 (* 1 x26)) (?v_8 (* 1 x0)) (?v_48 (* 1 x21)) (?v_17 (* 0 x21)) (?v_51 (* 1 x1)) (?v_105 (* 1 x4)) (?v_91 (* 1 x12)) (?v_20 (* 0 x37)) (?v_46 (* 1 x37)) (?v_41 (* 0 x4)) (?v_33 (* 1 x15)) (?v_13 (* 0 x23)) (?v_38 (* 1 x28)) (?v_93 (* 1 x5)) (?v_60 (* 0 x38)) (?v_70 (* 1 x33)) (?v_26 (* 0 x25)) (?v_40 (* 0 x17)) (?v_21 (* 0 x11)) (?v_22 (* 0 x6)) (?v_23 (* 0 x8)) (?v_32 (* 1 x7)) (?v_25 (* 0 x24)) (?v_49 (* 1 x36)) (?v_30 (* 0 x13)) (?v_73 (* 1 x16)) (?v_96 (* 1 x6)) (?v_82 (* 1 x8)) (?v_42 (* 1 x32)) (?v_66 (* 1 x23)) (?v_15 (* 0 x28)) (?v_63 (* 0 x20)) (?v_68 (* 0 x22)) (?v_31 (* 0 x27)) (?v_58 (* 1 x13)) (?v_102 (* 1 x25)) (?v_45 (* 0 x10)) (?v_78 (* 1 x17)) (?v_54 (* 0 x34)) (?v_76 (* 1 x31)) (?v_35 (* 0 x18)) (?v_95 (* 0 x31)) (?v_65 (* 0 x36)) (?v_87 (* 1 x34)) (?v_53 (* 0 x1)) (?v_107 (* 1 x29)) (?v_88 (* 1 x27)) (?v_75 (* 0 x5)) (?v_92 (* 0 x29)) (?v_77 (* 0 x3)) (?v_39 (* 0 x2)) (?v_85 (* 1 x10)) (?v_98 (* 1 x3)) (?v_44 (* 0 x19)) (?v_115 (* 1 x19)) (?v_119 (* 1 x39)) (?v_111 (* 1 x24)) (?v_5 (* 0 x14)) (?v_101 (* 0 x9)) (?v_116 (* 1 x22)) (?v_114 (* 0 x16)) (?v_2 (* (- 1) x29)) (?v_7 (* (- 1) x33)) (?v_1 (* (- 1) x3)) (?v_6 (* (- 1) x14)) (?v_52 (* (- 1) x1)) (?v_9 (* (- 1) x6)) (?v_34 (* (- 1) x2)) (?v_62 (* (- 1) x13)) (?v_67 (* (- 1) x4)) (?v_36 (* (- 1) x34)) (?v_56 (* (- 1) x5)) (?v_57 (* (- 1) x27)) (?v_50 (* (- 1) x30)) (?v_79 (* (- 1) x20)) (?v_27 (* (- 1) x11)) (?v_43 (* (- 1) x37)) (?v_64 (* (- 1) x0)) (?v_80 (* (- 1) x8)) (?v_37 (* (- 1) x19)) (?v_55 (* (- 1) x22)) (?v_109 (* (- 1) x21)) (?v_61 (* (- 1) x10)) (?v_106 (* (- 1) x35)) (?v_71 (* (- 1) x28)) (?v_83 (* (- 1) x26)) (?v_94 (* (- 1) x39)) (?v_69 (* (- 1) x36)) (?v_81 (* (- 1) x31)) (?v_74 (* (- 1) x25)) (?v_90 (* (- 1) x24)) (?v_86 (* (- 1) x23)) (?v_110 (* (- 1) x32)) (?v_84 (* (- 1) x16)) (?v_97 (* (- 1) x17)) (?v_100 (* (- 1) x7)) (?v_108 (* (- 1) x18)) (?v_118 (* (- 1) x38)) (?v_104 (* (- 1) x12)) (?v_112 (* (- 1) x9)) (?v_117 (* (- 1) x15))) (and (<= (+ ?v_12 ?v_59 ?v_21 ?v_10 ?v_13 ?v_2 ?v_0 ?v_7 ?v_24 ?v_3 ?v_0 ?v_1 ?v_6 ?v_30 ?v_1 ?v_89 ?v_45 ?v_4 ?v_52 ?v_1 ?v_99 ?v_16 ?v_31 ?v_0 ?v_9 ?v_2 ?v_18 ?v_113 ?v_11 ?v_103 ?v_34 ?v_28 ?v_0 ?v_72 ?v_53 ?v_3 ?v_5 ?v_4 ?v_29 ?v_5) 1) (<= (+ ?v_14 ?v_19 ?v_47 ?v_6 ?v_22 ?v_8 ?v_48 ?v_17 ?v_51 ?v_105 ?v_7 ?v_23 ?v_15 ?v_62 ?v_8 ?v_91 ?v_2 ?v_4 ?v_9 ?v_10 ?v_1 ?v_20 ?v_46 ?v_67 ?v_41 ?v_36 ?v_11 ?v_12 ?v_33 ?v_13 ?v_14 ?v_15 ?v_38 ?v_56 ?v_93 ?v_57 ?v_60 ?v_77 ?v_16 ?v_50) 0) (<= (+ ?v_70 ?v_26 ?v_17 ?v_40 ?v_18 ?v_25 ?v_65 ?v_35 ?v_19 ?v_20 ?v_79 ?v_21 ?v_22 ?v_27 ?v_5 ?v_23 ?v_24 ?v_17 ?v_43 ?v_32 ?v_11 ?v_64 ?v_25 ?v_49 ?v_26 ?v_44 ?v_80 ?v_39 ?v_27 ?v_24 ?v_28 ?v_29 ?v_30 ?v_31 ?v_13 ?v_32 ?v_1 ?v_8 ?v_33 ?v_34) 0) (<= (+ ?v_73 ?v_35 ?v_37 ?v_55 ?v_54 ?v_10 ?v_96 ?v_109 ?v_82 ?v_6 ?v_13 ?v_24 ?v_12 ?v_42 ?v_36 ?v_0 ?v_66 ?v_30 ?v_37 ?v_38 ?v_61 ?v_39 ?v_40 ?v_41 ?v_26 ?v_42 ?v_15 ?v_5 ?v_43 ?v_63 ?v_25 ?v_44 ?v_17 ?v_44 ?v_45 ?v_46 ?v_106 ?v_71 ?v_21 ?v_47) (- 1)) (<= (+ ?v_68 ?v_48 ?v_10 ?v_11 ?v_49 ?v_40 ?v_31 ?v_40 ?v_58 ?v_37 ?v_50 ?v_25 ?v_51 ?v_4 ?v_102 ?v_52 ?v_45 ?v_21 ?v_78 ?v_53 ?v_27 ?v_54 ?v_41 ?v_27 ?v_24 ?v_29 ?v_76 ?v_55 ?v_75 ?v_46 ?v_49 ?v_45 ?v_83 ?v_56 ?v_26 ?v_57 ?v_31 ?v_58 ?v_59 ?v_94) 0) (<= (+ ?v_35 ?v_60 ?v_55 ?v_24 ?v_95 ?v_28 ?v_20 ?v_61 ?v_34 ?v_13 ?v_38 ?v_62 ?v_63 ?v_22 ?v_27 ?v_64 ?v_65 ?v_66 ?v_69 ?v_87 ?v_15 ?v_67 ?v_5 ?v_68 ?v_5 ?v_52 ?v_47 ?v_60 ?v_81 ?v_69 ?v_38 ?v_34 ?v_63 ?v_26 ?v_53 ?v_63 ?v_107 ?v_70 ?v_88 ?v_17) 0) (<= (+ ?v_25 ?v_1 ?v_36 ?v_63 ?v_71 ?v_74 ?v_19 ?v_25 ?v_58 ?v_59 ?v_14 ?v_37 ?v_45 ?v_67 ?v_72 ?v_90 ?v_20 ?v_41 ?v_68 ?v_20 ?v_4 ?v_6 ?v_33 ?v_34 ?v_73 ?v_5 ?v_74 ?v_101 ?v_21 ?v_29 ?v_19 ?v_86 ?v_75 ?v_71 ?v_72 ?v_76 ?v_10 ?v_61 ?v_19 ?v_92) 0) (<= (+ ?v_77 ?v_78 ?v_28 ?v_79 ?v_30 ?v_110 ?v_80 ?v_28 ?v_81 ?v_84 ?v_0 ?v_36 ?v_82 ?v_77 ?v_15 ?v_80 ?v_61 ?v_39 ?v_79 ?v_41 ?v_85 ?v_20 ?v_49 ?v_83 ?v_84 ?v_50 ?v_98 ?v_85 ?v_47 ?v_97 ?v_49 ?v_81 ?v_57 ?v_14 ?v_28 ?v_74 ?v_29 ?v_56 ?v_86 ?v_87) 0) (<= (+ ?v_88 ?v_39 ?v_20 ?v_100 ?v_89 ?v_20 ?v_31 ?v_90 ?v_53 ?v_85 ?v_91 ?v_92 ?v_70 ?v_59 ?v_25 ?v_44 ?v_93 ?v_16 ?v_94 ?v_77 ?v_95 ?v_15 ?v_43 ?v_68 ?v_53 ?v_51 ?v_16 ?v_93 ?v_50 ?v_96 ?v_44 ?v_97 ?v_54 ?v_79 ?v_62 ?v_98 ?v_21 ?v_10 ?v_8 ?v_94) 1) (<= (+ ?v_49 ?v_59 ?v_99 ?v_100 ?v_53 ?v_44 ?v_87 ?v_13 ?v_16 ?v_108 ?v_1 ?v_73 ?v_96 ?v_67 ?v_28 ?v_65 ?v_25 ?v_77 ?v_28 ?v_10 ?v_39 ?v_3 ?v_69 ?v_85 ?v_29 ?v_118 ?v_21 ?v_35 ?v_115 ?v_20 ?v_101 ?v_40 ?v_26 ?v_83 ?v_104 ?v_84 ?v_88 ?v_12 ?v_16 ?v_1) 0) (<= (+ ?v_102 ?v_32 ?v_40 ?v_44 ?v_53 ?v_22 ?v_69 ?v_71 ?v_103 ?v_82 ?v_68 ?v_47 ?v_112 ?v_17 ?v_59 ?v_55 ?v_104 ?v_9 ?v_13 ?v_105 ?v_4 ?v_24 ?v_103 ?v_76 ?v_26 ?v_54 ?v_41 ?v_92 ?v_95 ?v_106 ?v_87 ?v_107 ?v_39 ?v_15 ?v_6 ?v_52 ?v_79 ?v_36 ?v_114 ?v_97) 1) (<= (+ ?v_11 ?v_45 ?v_61 ?v_56 ?v_21 ?v_91 ?v_108 ?v_48 ?v_85 ?v_66 ?v_21 ?v_25 ?v_19 ?v_91 ?v_30 ?v_109 ?v_110 ?v_41 ?v_119 ?v_43 ?v_8 ?v_68 ?v_24 ?v_9 ?v_85 ?v_111 ?v_41 ?v_94 ?v_7 ?v_20 ?v_111 ?v_83 ?v_30 ?v_47 ?v_90 ?v_40 ?v_26 ?v_29 ?v_56 ?v_8) 0) (<= (+ ?v_20 ?v_47 ?v_15 ?v_0 ?v_39 ?v_52 ?v_107 ?v_85 ?v_13 ?v_112 ?v_84 ?v_63 ?v_20 ?v_53 ?v_65 ?v_30 ?v_110 ?v_17 ?v_20 ?v_43 ?v_60 ?v_26 ?v_30 ?v_27 ?v_27 ?v_86 ?v_16 ?v_45 ?v_31 ?v_113 ?v_43 ?v_112 ?v_13 ?v_88 ?v_22 ?v_19 ?v_91 ?v_20 ?v_95 ?v_33) 0) (<= (+ ?v_51 ?v_68 ?v_107 ?v_32 ?v_8 ?v_58 ?v_76 ?v_47 ?v_20 ?v_48 ?v_8 ?v_19 ?v_70 ?v_5 ?v_29 ?v_24 ?v_60 ?v_107 ?v_108 ?v_100 ?v_59 ?v_98 ?v_7 ?v_26 ?v_10 ?v_75 ?v_94 ?v_7 ?v_105 ?v_9 ?v_76 ?v_52 ?v_39 ?v_110 ?v_101 ?v_10 ?v_66 ?v_25 ?v_20 ?v_35) 0) (<= (+ ?v_102 ?v_57 ?v_2 ?v_9 ?v_97 ?v_95 ?v_13 ?v_5 ?v_100 ?v_19 ?v_92 ?v_4 ?v_70 ?v_104 ?v_6 ?v_68 ?v_98 ?v_58 ?v_83 ?v_12 ?v_47 ?v_0 ?v_64 ?v_91 ?v_43 ?v_113 ?v_29 ?v_85 ?v_26 ?v_20 ?v_106 ?v_107 ?v_18 ?v_56 ?v_18 ?v_41 ?v_30 ?v_101 ?v_5 ?v_63) 1) (<= (+ ?v_16 ?v_37 ?v_38 ?v_26 ?v_33 ?v_58 ?v_68 ?v_117 ?v_98 ?v_16 ?v_74 ?v_65 ?v_14 ?v_80 ?v_45 ?v_108 ?v_65 ?v_103 ?v_19 ?v_8 ?v_60 ?v_32 ?v_85 ?v_77 ?v_102 ?v_80 ?v_48 ?v_112 ?v_61 ?v_9 ?v_95 ?v_12 ?v_5 ?v_44 ?v_33 ?v_40 ?v_20 ?v_52 ?v_22 ?v_68) 0) (<= (+ ?v_14 ?v_43 ?v_71 ?v_64 ?v_103 ?v_66 ?v_101 ?v_77 ?v_13 ?v_17 ?v_15 ?v_99 ?v_103 ?v_110 ?v_105 ?v_107 ?v_39 ?v_85 ?v_72 ?v_30 ?v_65 ?v_15 ?v_65 ?v_76 ?v_92 ?v_22 ?v_86 ?v_98 ?v_12 ?v_8 ?v_24 ?v_60 ?v_37 ?v_2 ?v_69 ?v_92 ?v_68 ?v_111 ?v_16 ?v_38) 1) (<= (+ ?v_5 ?v_45 ?v_83 ?v_12 ?v_113 ?v_15 ?v_75 ?v_16 ?v_60 ?v_30 ?v_101 ?v_20 ?v_86 ?v_116 ?v_95 ?v_23 ?v_101 ?v_49 ?v_42 ?v_92 ?v_79 ?v_65 ?v_25 ?v_69 ?v_92 ?v_110 ?v_44 ?v_3 ?v_34 ?v_27 ?v_39 ?v_20 ?v_64 ?v_71 ?v_42 ?v_22 ?v_21 ?v_105 ?v_110 ?v_60) (- 1)) (<= (+ ?v_78 ?v_20 ?v_95 ?v_63 ?v_92 ?v_87 ?v_65 ?v_95 ?v_103 ?v_75 ?v_54 ?v_109 ?v_80 ?v_17 ?v_103 ?v_114 ?v_40 ?v_115 ?v_40 ?v_12 ?v_49 ?v_82 ?v_27 ?v_102 ?v_101 ?v_83 ?v_4 ?v_56 ?v_65 ?v_97 ?v_80 ?v_47 ?v_116 ?v_74 ?v_101 ?v_14 ?v_99 ?v_40 ?v_53 ?v_20) (- 1)) (<= (+ ?v_89 ?v_18 ?v_52 ?v_47 ?v_30 ?v_45 ?v_59 ?v_64 ?v_2 ?v_4 ?v_99 ?v_117 ?v_82 ?v_114 ?v_9 ?v_60 ?v_50 ?v_71 ?v_63 ?v_66 ?v_46 ?v_8 ?v_10 ?v_37 ?v_6 ?v_99 ?v_57 ?v_51 ?v_118 ?v_117 ?v_25 ?v_107 ?v_44 ?v_14 ?v_52 ?v_70 ?v_50 ?v_35 ?v_76 ?v_78) 1) (<= (+ ?v_116 ?v_44 ?v_81 ?v_108 ?v_77 ?v_94 ?v_49 ?v_117 ?v_65 ?v_70 ?v_106 ?v_41 ?v_83 ?v_72 ?v_81 ?v_60 ?v_113 ?v_41 ?v_7 ?v_74 ?v_15 ?v_19 ?v_16 ?v_22 ?v_56 ?v_29 ?v_44 ?v_98 ?v_28 ?v_75 ?v_74 ?v_38 ?v_44 ?v_20 ?v_30 ?v_2 ?v_63 ?v_64 ?v_0 ?v_2) 1) (<= (+ ?v_10 ?v_45 ?v_95 ?v_33 ?v_26 ?v_91 ?v_101 ?v_60 ?v_83 ?v_19 ?v_37 ?v_29 ?v_98 ?v_60 ?v_31 ?v_116 ?v_36 ?v_108 ?v_61 ?v_18 ?v_7 ?v_12 ?v_40 ?v_86 ?v_12 ?v_14 ?v_26 ?v_39 ?v_28 ?v_1 ?v_11 ?v_65 ?v_12 ?v_56 ?v_8 ?v_51 ?v_21 ?v_19 ?v_12 ?v_117) 1) (<= (+ ?v_111 ?v_11 ?v_40 ?v_51 ?v_19 ?v_56 ?v_54 ?v_31 ?v_19 ?v_74 ?v_95 ?v_0 ?v_35 ?v_7 ?v_26 ?v_75 ?v_110 ?v_35 ?v_64 ?v_2 ?v_110 ?v_29 ?v_110 ?v_97 ?v_24 ?v_94 ?v_84 ?v_61 ?v_43 ?v_0 ?v_62 ?v_119 ?v_28 ?v_34 ?v_55 ?v_10 ?v_112 ?v_32 ?v_15 ?v_111) 0) (<= (+ ?v_28 ?v_25 ?v_6 ?v_11 ?v_59 ?v_81 ?v_75 ?v_76 ?v_49 ?v_1 ?v_69 ?v_87 ?v_58 ?v_64 ?v_61 ?v_29 ?v_96 ?v_72 ?v_41 ?v_15 ?v_114 ?v_92 ?v_16 ?v_61 ?v_47 ?v_10 ?v_35 ?v_54 ?v_21 ?v_75 ?v_4 ?v_29 ?v_15 ?v_20 ?v_5 ?v_16 ?v_71 ?v_32 ?v_8 ?v_65) (- 1)) (<= (+ ?v_70 ?v_84 ?v_53 ?v_79 ?v_34 ?v_24 ?v_0 ?v_29 ?v_60 ?v_25 ?v_35 ?v_27 ?v_78 ?v_73 ?v_111 ?v_108 ?v_6 ?v_16 ?v_40 ?v_16 ?v_29 ?v_36 ?v_30 ?v_79 ?v_107 ?v_10 ?v_23 ?v_4 ?v_75 ?v_20 ?v_17 ?v_6 ?v_8 ?v_5 ?v_87 ?v_16 ?v_7 ?v_63 ?v_116 ?v_15) (- 1)) (<= (+ ?v_23 ?v_77 ?v_108 ?v_2 ?v_14 ?v_114 ?v_102 ?v_68 ?v_45 ?v_15 ?v_24 ?v_44 ?v_4 ?v_21 ?v_85 ?v_107 ?v_91 ?v_13 ?v_39 ?v_39 ?v_92 ?v_72 ?v_17 ?v_24 ?v_118 ?v_48 ?v_117 ?v_87 ?v_35 ?v_17 ?v_90 ?v_31 ?v_57 ?v_70 ?v_54 ?v_31 ?v_113 ?v_45 ?v_16 ?v_50) 0) (<= (+ ?v_35 ?v_1 ?v_41 ?v_8 ?v_26 ?v_116 ?v_61 ?v_67 ?v_119 ?v_20 ?v_71 ?v_67 ?v_77 ?v_45 ?v_10 ?v_10 ?v_53 ?v_25 ?v_22 ?v_23 ?v_96 ?v_67 ?v_67 ?v_95 ?v_53 ?v_115 ?v_53 ?v_92 ?v_22 ?v_27 ?v_43 ?v_13 ?v_65 ?v_4 ?v_42 ?v_59 ?v_53 ?v_72 ?v_75 ?v_92) (- 1)) (<= (+ ?v_93 ?v_12 ?v_21 ?v_6 ?v_0 ?v_17 ?v_110 ?v_35 ?v_97 ?v_68 ?v_6 ?v_10 ?v_103 ?v_37 ?v_23 ?v_79 ?v_45 ?v_32 ?v_80 ?v_111 ?v_6 ?v_42 ?v_39 ?v_15 ?v_3 ?v_113 ?v_39 ?v_5 ?v_57 ?v_94 ?v_19 ?v_65 ?v_19 ?v_95 ?v_97 ?v_105 ?v_20 ?v_68 ?v_25 ?v_58) (- 1)) (<= (+ ?v_42 ?v_67 ?v_36 ?v_18 ?v_0 ?v_39 ?v_70 ?v_91 ?v_14 ?v_92 ?v_108 ?v_114 ?v_21 ?v_94 ?v_14 ?v_23 ?v_59 ?v_107 ?v_68 ?v_71 ?v_114 ?v_75 ?v_106 ?v_44 ?v_41 ?v_69 ?v_117 ?v_37 ?v_112 ?v_6 ?v_29 ?v_41 ?v_36 ?v_39 ?v_8 ?v_20 ?v_26 ?v_86 ?v_21 ?v_16) 0) (<= (+ ?v_25 ?v_30 ?v_22 ?v_29 ?v_111 ?v_29 ?v_47 ?v_50 ?v_25 ?v_69 ?v_36 ?v_86 ?v_95 ?v_65 ?v_31 ?v_80 ?v_108 ?v_69 ?v_53 ?v_17 ?v_118 ?v_96 ?v_112 ?v_24 ?v_92 ?v_49 ?v_50 ?v_106 ?v_116 ?v_40 ?v_22 ?v_10 ?v_0 ?v_5 ?v_42 ?v_63 ?v_16 ?v_22 ?v_27 ?v_24) (- 1)) (<= (+ ?v_33 ?v_19 ?v_114 ?v_26 ?v_23 ?v_106 ?v_116 ?v_89 ?v_3 ?v_21 ?v_94 ?v_35 ?v_92 ?v_40 ?v_41 ?v_40 ?v_6 ?v_66 ?v_47 ?v_16 ?v_80 ?v_16 ?v_111 ?v_22 ?v_103 ?v_21 ?v_100 ?v_104 ?v_96 ?v_116 ?v_35 ?v_4 ?v_95 ?v_35 ?v_16 ?v_31 ?v_62 ?v_15 ?v_30 ?v_5) 1) (<= (+ ?v_72 ?v_63 ?v_39 ?v_29 ?v_12 ?v_51 ?v_15 ?v_46 ?v_25 ?v_62 ?v_91 ?v_20 ?v_82 ?v_49 ?v_103 ?v_45 ?v_114 ?v_23 ?v_110 ?v_16 ?v_80 ?v_40 ?v_34 ?v_30 ?v_77 ?v_9 ?v_21 ?v_19 ?v_24 ?v_20 ?v_68 ?v_9 ?v_101 ?v_47 ?v_63 ?v_33 ?v_38 ?v_66 ?v_96 ?v_16) (- 1)) (<= (+ ?v_11 ?v_29 ?v_58 ?v_117 ?v_29 ?v_117 ?v_19 ?v_119 ?v_67 ?v_23 ?v_77 ?v_117 ?v_109 ?v_29 ?v_33 ?v_88 ?v_15 ?v_39 ?v_118 ?v_92 ?v_75 ?v_68 ?v_42 ?v_17 ?v_28 ?v_25 ?v_7 ?v_56 ?v_28 ?v_57 ?v_59 ?v_107 ?v_85 ?v_62 ?v_43 ?v_13 ?v_45 ?v_43 ?v_10 ?v_60) 1) (<= (+ ?v_91 ?v_18 ?v_104 ?v_63 ?v_28 ?v_18 ?v_33 ?v_45 ?v_27 ?v_97 ?v_25 ?v_5 ?v_29 ?v_119 ?v_85 ?v_17 ?v_101 ?v_15 ?v_25 ?v_36 ?v_63 ?v_35 ?v_42 ?v_70 ?v_104 ?v_73 ?v_81 ?v_12 ?v_92 ?v_7 ?v_1 ?v_110 ?v_5 ?v_16 ?v_89 ?v_63 ?v_60 ?v_77 ?v_44 ?v_57) 0) (<= (+ ?v_30 ?v_75 ?v_114 ?v_94 ?v_14 ?v_99 ?v_2 ?v_26 ?v_12 ?v_86 ?v_94 ?v_24 ?v_93 ?v_63 ?v_67 ?v_29 ?v_63 ?v_83 ?v_104 ?v_1 ?v_53 ?v_42 ?v_12 ?v_99 ?v_35 ?v_19 ?v_15 ?v_24 ?v_40 ?v_78 ?v_30 ?v_51 ?v_59 ?v_35 ?v_22 ?v_21 ?v_52 ?v_94 ?v_12 ?v_75) (- 1)) (<= (+ ?v_29 ?v_107 ?v_54 ?v_60 ?v_4 ?v_86 ?v_89 ?v_13 ?v_58 ?v_40 ?v_65 ?v_114 ?v_24 ?v_21 ?v_25 ?v_32 ?v_96 ?v_50 ?v_10 ?v_38 ?v_54 ?v_26 ?v_65 ?v_17 ?v_34 ?v_100 ?v_56 ?v_38 ?v_7 ?v_1 ?v_113 ?v_38 ?v_12 ?v_39 ?v_86 ?v_21 ?v_3 ?v_79 ?v_49 ?v_21) 1) (<= (+ ?v_75 ?v_20 ?v_88 ?v_57 ?v_63 ?v_96 ?v_76 ?v_118 ?v_87 ?v_23 ?v_40 ?v_5 ?v_38 ?v_90 ?v_21 ?v_68 ?v_12 ?v_33 ?v_21 ?v_29 ?v_17 ?v_99 ?v_103 ?v_26 ?v_77 ?v_17 ?v_20 ?v_55 ?v_41 ?v_98 ?v_109 ?v_12 ?v_109 ?v_30 ?v_97 ?v_92 ?v_0 ?v_119 ?v_36 ?v_105) (- 1)) (<= (+ ?v_17 ?v_21 ?v_77 ?v_3 ?v_94 ?v_75 ?v_17 ?v_90 ?v_102 ?v_44 ?v_28 ?v_75 ?v_36 ?v_17 ?v_82 ?v_53 ?v_58 ?v_113 ?v_104 ?v_19 ?v_102 ?v_100 ?v_95 ?v_95 ?v_117 ?v_116 ?v_77 ?v_46 ?v_81 ?v_63 ?v_103 ?v_32 ?v_43 ?v_13 ?v_91 ?v_106 ?v_61 ?v_50 ?v_23 ?v_8) 0) (<= (+ ?v_8 ?v_19 ?v_109 ?v_63 ?v_29 ?v_12 ?v_19 ?v_105 ?v_43 ?v_107 ?v_15 ?v_39 ?v_116 ?v_16 ?v_95 ?v_35 ?v_115 ?v_52 ?v_14 ?v_67 ?v_53 ?v_23 ?v_5 ?v_21 ?v_98 ?v_114 ?v_22 ?v_44 ?v_33 ?v_59 ?v_18 ?v_35 ?v_95 ?v_59 ?v_16 ?v_93 ?v_18 ?v_30 ?v_9 ?v_107) 1) (<= (+ ?v_49 ?v_85 ?v_19 ?v_76 ?v_96 ?v_25 ?v_90 ?v_19 ?v_39 ?v_44 ?v_79 ?v_93 ?v_91 ?v_116 ?v_15 ?v_64 ?v_110 ?v_114 ?v_60 ?v_60 ?v_50 ?v_66 ?v_16 ?v_17 ?v_20 ?v_2 ?v_107 ?v_101 ?v_13 ?v_5 ?v_58 ?v_34 ?v_4 ?v_103 ?v_46 ?v_17 ?v_54 ?v_109 ?v_68 ?v_81) (- 1)) (<= (+ ?v_18 ?v_58 ?v_29 ?v_85 ?v_14 ?v_114 ?v_16 ?v_62 ?v_104 ?v_63 ?v_115 ?v_110 ?v_103 ?v_35 ?v_61 ?v_0 ?v_16 ?v_89 ?v_29 ?v_5 ?v_60 ?v_64 ?v_28 ?v_24 ?v_82 ?v_62 ?v_59 ?v_63 ?v_74 ?v_80 ?v_69 ?v_103 ?v_39 ?v_43 ?v_25 ?v_20 ?v_89 ?v_76 ?v_112 ?v_19) 0) (<= (+ ?v_23 ?v_71 ?v_86 ?v_37 ?v_83 ?v_15 ?v_114 ?v_27 ?v_72 ?v_74 ?v_97 ?v_85 ?v_60 ?v_55 ?v_28 ?v_108 ?v_71 ?v_2 ?v_10 ?v_59 ?v_52 ?v_66 ?v_119 ?v_96 ?v_79 ?v_3 ?v_78 ?v_1 ?v_68 ?v_54 ?v_17 ?v_110 ?v_0 ?v_35 ?v_77 ?v_9 ?v_32 ?v_30 ?v_28 ?v_69) (- 1)) (<= (+ ?v_102 ?v_78 ?v_116 ?v_116 ?v_22 ?v_116 ?v_15 ?v_105 ?v_22 ?v_29 ?v_10 ?v_9 ?v_35 ?v_19 ?v_2 ?v_117 ?v_8 ?v_88 ?v_43 ?v_73 ?v_115 ?v_75 ?v_11 ?v_80 ?v_9 ?v_16 ?v_27 ?v_12 ?v_28 ?v_12 ?v_114 ?v_61 ?v_15 ?v_41 ?v_39 ?v_47 ?v_91 ?v_15 ?v_20 ?v_43) 0) (<= (+ ?v_16 ?v_95 ?v_59 ?v_33 ?v_48 ?v_61 ?v_95 ?v_4 ?v_81 ?v_13 ?v_77 ?v_23 ?v_88 ?v_89 ?v_57 ?v_22 ?v_59 ?v_58 ?v_40 ?v_2 ?v_24 ?v_16 ?v_22 ?v_9 ?v_89 ?v_24 ?v_108 ?v_57 ?v_26 ?v_70 ?v_68 ?v_68 ?v_45 ?v_15 ?v_83 ?v_28 ?v_13 ?v_10 ?v_84 ?v_77) 1) (<= (+ ?v_58 ?v_19 ?v_59 ?v_95 ?v_98 ?v_29 ?v_109 ?v_35 ?v_38 ?v_40 ?v_54 ?v_84 ?v_84 ?v_97 ?v_10 ?v_103 ?v_4 ?v_3 ?v_52 ?v_24 ?v_46 ?v_103 ?v_12 ?v_40 ?v_94 ?v_44 ?v_79 ?v_45 ?v_75 ?v_110 ?v_40 ?v_20 ?v_89 ?v_42 ?v_53 ?v_97 ?v_5 ?v_93 ?v_32 ?v_70) 1) (<= (+ ?v_49 ?v_4 ?v_100 ?v_1 ?v_29 ?v_44 ?v_24 ?v_85 ?v_26 ?v_6 ?v_13 ?v_0 ?v_46 ?v_54 ?v_65 ?v_60 ?v_9 ?v_75 ?v_112 ?v_39 ?v_31 ?v_80 ?v_22 ?v_75 ?v_95 ?v_20 ?v_12 ?v_60 ?v_71 ?v_54 ?v_105 ?v_5 ?v_25 ?v_19 ?v_108 ?v_61 ?v_44 ?v_13 ?v_23 ?v_32) (- 1)) (<= (+ ?v_19 ?v_40 ?v_26 ?v_41 ?v_65 ?v_24 ?v_53 ?v_80 ?v_13 ?v_113 ?v_45 ?v_40 ?v_115 ?v_117 ?v_67 ?v_111 ?v_8 ?v_35 ?v_29 ?v_66 ?v_64 ?v_20 ?v_119 ?v_22 ?v_44 ?v_23 ?v_54 ?v_0 ?v_73 ?v_105 ?v_0 ?v_114 ?v_80 ?v_47 ?v_111 ?v_23 ?v_77 ?v_45 ?v_48 ?v_104) 0) (<= (+ ?v_105 ?v_72 ?v_36 ?v_82 ?v_22 ?v_29 ?v_31 ?v_30 ?v_68 ?v_75 ?v_54 ?v_44 ?v_9 ?v_57 ?v_88 ?v_82 ?v_65 ?v_109 ?v_27 ?v_79 ?v_43 ?v_90 ?v_41 ?v_88 ?v_95 ?v_86 ?v_10 ?v_24 ?v_89 ?v_54 ?v_30 ?v_4 ?v_31 ?v_45 ?v_67 ?v_114 ?v_85 ?v_22 ?v_25 ?v_16) 0) (<= (+ ?v_49 ?v_46 ?v_92 ?v_0 ?v_68 ?v_91 ?v_98 ?v_113 ?v_31 ?v_45 ?v_68 ?v_17 ?v_2 ?v_19 ?v_2 ?v_38 ?v_69 ?v_46 ?v_48 ?v_30 ?v_59 ?v_17 ?v_95 ?v_104 ?v_100 ?v_26 ?v_38 ?v_81 ?v_54 ?v_118 ?v_20 ?v_107 ?v_24 ?v_8 ?v_117 ?v_60 ?v_97 ?v_35 ?v_43 ?v_44) 0) (<= (+ ?v_99 ?v_92 ?v_16 ?v_40 ?v_117 ?v_22 ?v_83 ?v_74 ?v_13 ?v_24 ?v_103 ?v_19 ?v_101 ?v_35 ?v_7 ?v_76 ?v_113 ?v_23 ?v_67 ?v_15 ?v_2 ?v_20 ?v_107 ?v_17 ?v_75 ?v_87 ?v_81 ?v_58 ?v_102 ?v_110 ?v_52 ?v_12 ?v_22 ?v_32 ?v_69 ?v_65 ?v_60 ?v_28 ?v_22 ?v_29) 0))))
(check-sat)
(exit)
